6 5 3 11 8 7 1 12 8 15 5 5 5 7 1 1 4 17 14 13 6 17 13 21 11 11 11 13 7 5 16 13 12 6 16 12 21 10 10 11 12 6 13 11 10 3 15 11 18 8 8 8 9 5 4 6 11 8 8 6 7 7 6 4 11 1 8 5 4 7 3 3 3 3 8 7 5 3 8 2 2 2 3 7 12 8 15 5 5 5 6 2 4 6 7 7 7 8 11 9 3 4 4 6 7 10 10 10 9 15 0 1 3 5 1 3 4 2 5 7 